[[34, 52, 46, 8, 7, 35, 54, 19, 53, 14, 59, 66, 11, 65, 38], [10, 31, 58, 72, 39, 9, 25, 55, 50, 18, 24], [3, 44, 32, 40, 12, 17, 51, 6, 2, 73, 33, 63, 16, 49, 23], [56, 43, 41, 42, 64, 22, 62, 28, 61, 74, 21, 47, 69, 36], [71, 60, 70, 20, 37, 5, 15, 57, 13, 27, 45, 29, 48, 30, 4, 68, 75, 76, 26, 67]]